100 500 10 200 10 100
31 53
96 100
47 125
91 168
100 92
27 38
98 64
44 40
62 104
84 27
11 164
98 108
55 60
62 184
87 10
83 57
33 99
92 182
49 179
45 42
17 93
56 69
25 96
45 41
92 61
94 35
21 180
95 193
84 181
17 21
97 15
40 56
32 36
69 184
30 29
73 118
82 86
59 81
72 97
54 184
39 14
73 16
39 163
70 45
77 27
45 146
30 136
72 170
23 50
77 19
97 169
34 25
85 125
55 70
40 30
36 13
100 106
73 18
29 61
67 56
35 122
86 122
94 184
61 63
51 66
67 137
40 21
96 145
37 48
34 193
11 102
53 93
22 59
93 111
20 167
54 179
24 148
54 181
12 13
95 199
42 128
17 138
15 109
50 120
69 109
80 37
88 151
34 52
47 65
58 154
94 131
56 154
94 75
42 53
68 168
12 161
50 199
89 56
92 24
69 76
